p cnf 200 1110
-101 53 0
-101 -13 0
-101 -59 0
-101 -82 0
-101 -49 0
-101 34 0
-101 -38 0
-101 -96 0
-101 -48 0
-101 61 0
101 -53 13 59 82 49 -34 38 96 48 -61 0
-102 73 0
-102 52 0
-102 -87 0
-102 45 0
-102 -42 0
-102 31 0
-102 82 0
-102 15 0
-102 8 0
-102 88 0
102 -73 -52 87 -45 42 -31 -82 -15 -8 -88 0
-103 -85 0
-103 -82 0
-103 93 0
-103 -32 0
-103 -99 0
-103 -78 0
-103 58 0
-103 76 0
-103 -89 0
-103 -11 0
103 85 82 -93 32 99 78 -58 -76 89 11 0
-104 69 0
-104 -22 0
-104 -75 0
-104 -74 0
-104 -33 0
-104 -88 0
-104 -53 0
-104 84 0
-104 45 0
-104 55 0
104 -69 22 75 74 33 88 53 -84 -45 -55 0
-105 91 0
-105 1 0
-105 -85 0
-105 8 0
-105 -5 0
-105 30 0
-105 47 0
-105 -62 0
-105 64 0
-105 -22 0
105 -91 -1 85 -8 5 -30 -47 62 -64 22 0
-106 18 0
-106 -53 0
-106 50 0
-106 -89 0
-106 -86 0
-106 56 0
-106 -77 0
-106 47 0
-106 22 0
-106 -60 0
106 -18 53 -50 89 86 -56 77 -47 -22 60 0
-107 -65 0
-107 -77 0
-107 72 0
-107 -6 0
-107 92 0
-107 -95 0
-107 -16 0
-107 100 0
-107 -9 0
-107 79 0
107 65 77 -72 6 -92 95 16 -100 9 -79 0
-108 21 0
-108 -76 0
-108 -49 0
-108 -64 0
-108 -29 0
-108 -87 0
-108 55 0
-108 99 0
-108 -69 0
-108 11 0
108 -21 76 49 64 29 87 -55 -99 69 -11 0
-109 36 0
-109 62 0
-109 -22 0
-109 -25 0
-109 67 0
-109 19 0
-109 44 0
-109 -6 0
-109 91 0
-109 -16 0
109 -36 -62 22 25 -67 -19 -44 6 -91 16 0
-110 83 0
-110 -90 0
-110 47 0
-110 -46 0
-110 48 0
-110 12 0
-110 36 0
-110 81 0
-110 -29 0
-110 19 0
110 -83 90 -47 46 -48 -12 -36 -81 29 -19 0
101 102 103 104 105 106 107 108 109 110 0
-111 -10 0
-111 77 0
-111 -29 0
-111 28 0
-111 -38 0
-111 56 0
-111 -3 0
-111 68 0
-111 -98 0
-111 -42 0
111 10 -77 29 -28 38 -56 3 -68 98 42 0
-112 -76 0
-112 62 0
-112 18 0
-112 68 0
-112 66 0
-112 -7 0
-112 -78 0
-112 -70 0
-112 32 0
-112 -94 0
112 76 -62 -18 -68 -66 7 78 70 -32 94 0
-113 53 0
-113 -58 0
-113 65 0
-113 79 0
-113 74 0
-113 39 0
-113 13 0
-113 16 0
-113 -42 0
-113 71 0
113 -53 58 -65 -79 -74 -39 -13 -16 42 -71 0
-114 50 0
-114 100 0
-114 -14 0
-114 -45 0
-114 20 0
-114 -38 0
-114 -15 0
-114 40 0
-114 1 0
-114 2 0
114 -50 -100 14 45 -20 38 15 -40 -1 -2 0
-115 -12 0
-115 89 0
-115 85 0
-115 27 0
-115 73 0
-115 48 0
-115 71 0
-115 17 0
-115 11 0
-115 -19 0
115 12 -89 -85 -27 -73 -48 -71 -17 -11 19 0
-116 -5 0
-116 -9 0
-116 -10 0
-116 -8 0
-116 24 0
-116 -68 0
-116 -81 0
-116 -87 0
-116 17 0
-116 91 0
116 5 9 10 8 -24 68 81 87 -17 -91 0
-117 -96 0
-117 -65 0
-117 60 0
-117 -17 0
-117 -37 0
-117 30 0
-117 24 0
-117 -10 0
-117 74 0
-117 -63 0
117 96 65 -60 17 37 -30 -24 10 -74 63 0
-118 -72 0
-118 9 0
-118 89 0
-118 -52 0
-118 56 0
-118 -7 0
-118 -71 0
-118 -83 0
-118 5 0
-118 -82 0
118 72 -9 -89 52 -56 7 71 83 -5 82 0
-119 20 0
-119 -47 0
-119 8 0
-119 50 0
-119 25 0
-119 -21 0
-119 39 0
-119 -51 0
-119 -63 0
-119 42 0
119 -20 47 -8 -50 -25 21 -39 51 63 -42 0
-120 42 0
-120 -88 0
-120 -6 0
-120 10 0
-120 -83 0
-120 -80 0
-120 15 0
-120 -70 0
-120 97 0
-120 -29 0
120 -42 88 6 -10 83 80 -15 70 -97 29 0
111 112 113 114 115 116 117 118 119 120 0
-121 14 0
-121 -38 0
-121 11 0
-121 81 0
-121 -51 0
-121 -19 0
-121 43 0
-121 15 0
-121 70 0
-121 50 0
121 -14 38 -11 -81 51 19 -43 -15 -70 -50 0
-122 9 0
-122 -80 0
-122 -93 0
-122 24 0
-122 77 0
-122 36 0
-122 48 0
-122 -85 0
-122 -18 0
-122 79 0
122 -9 80 93 -24 -77 -36 -48 85 18 -79 0
-123 93 0
-123 31 0
-123 60 0
-123 45 0
-123 -26 0
-123 -72 0
-123 -88 0
-123 -84 0
-123 24 0
-123 99 0
123 -93 -31 -60 -45 26 72 88 84 -24 -99 0
-124 -7 0
-124 -97 0
-124 8 0
-124 -19 0
-124 -59 0
-124 68 0
-124 24 0
-124 -58 0
-124 75 0
-124 -94 0
124 7 97 -8 19 59 -68 -24 58 -75 94 0
-125 9 0
-125 70 0
-125 91 0
-125 94 0
-125 -47 0
-125 -83 0
-125 77 0
-125 -36 0
-125 7 0
-125 -59 0
125 -9 -70 -91 -94 47 83 -77 36 -7 59 0
-126 85 0
-126 99 0
-126 84 0
-126 15 0
-126 -89 0
-126 -60 0
-126 11 0
-126 29 0
-126 1 0
-126 -35 0
126 -85 -99 -84 -15 89 60 -11 -29 -1 35 0
-127 -43 0
-127 -28 0
-127 60 0
-127 -9 0
-127 44 0
-127 36 0
-127 24 0
-127 76 0
-127 99 0
-127 -88 0
127 43 28 -60 9 -44 -36 -24 -76 -99 88 0
-128 -97 0
-128 100 0
-128 -72 0
-128 7 0
-128 34 0
-128 -62 0
-128 -70 0
-128 50 0
-128 -10 0
-128 -3 0
128 97 -100 72 -7 -34 62 70 -50 10 3 0
-129 2 0
-129 80 0
-129 -64 0
-129 -12 0
-129 -15 0
-129 4 0
-129 -24 0
-129 69 0
-129 -47 0
-129 9 0
129 -2 -80 64 12 15 -4 24 -69 47 -9 0
-130 91 0
-130 52 0
-130 48 0
-130 24 0
-130 -29 0
-130 -54 0
-130 76 0
-130 82 0
-130 50 0
-130 67 0
130 -91 -52 -48 -24 29 54 -76 -82 -50 -67 0
121 122 123 124 125 126 127 128 129 130 0
-131 55 0
-131 6 0
-131 -100 0
-131 15 0
-131 -89 0
-131 66 0
-131 -82 0
-131 -84 0
-131 77 0
-131 -18 0
131 -55 -6 100 -15 89 -66 82 84 -77 18 0
-132 77 0
-132 -33 0
-132 -46 0
-132 -85 0
-132 -20 0
-132 15 0
-132 14 0
-132 54 0
-132 -61 0
-132 78 0
132 -77 33 46 85 20 -15 -14 -54 61 -78 0
-133 90 0
-133 -99 0
-133 -44 0
-133 -57 0
-133 41 0
-133 -50 0
-133 -93 0
-133 -18 0
-133 56 0
-133 84 0
133 -90 99 44 57 -41 50 93 18 -56 -84 0
-134 -21 0
-134 73 0
-134 87 0
-134 60 0
-134 64 0
-134 -37 0
-134 -50 0
-134 88 0
-134 5 0
-134 -39 0
134 21 -73 -87 -60 -64 37 50 -88 -5 39 0
-135 -85 0
-135 36 0
-135 76 0
-135 -56 0
-135 -55 0
-135 44 0
-135 59 0
-135 43 0
-135 62 0
-135 -22 0
135 85 -36 -76 56 55 -44 -59 -43 -62 22 0
-136 -90 0
-136 16 0
-136 -37 0
-136 9 0
-136 -22 0
-136 45 0
-136 -8 0
-136 47 0
-136 64 0
-136 -100 0
136 90 -16 37 -9 22 -45 8 -47 -64 100 0
-137 7 0
-137 71 0
-137 -99 0
-137 54 0
-137 43 0
-137 -59 0
-137 -69 0
-137 -50 0
-137 -47 0
-137 46 0
137 -7 -71 99 -54 -43 59 69 50 47 -46 0
-138 -10 0
-138 -28 0
-138 71 0
-138 22 0
-138 21 0
-138 -34 0
-138 -100 0
-138 27 0
-138 -68 0
-138 65 0
138 10 28 -71 -22 -21 34 100 -27 68 -65 0
-139 77 0
-139 -18 0
-139 -55 0
-139 -96 0
-139 7 0
-139 95 0
-139 33 0
-139 63 0
-139 10 0
-139 -91 0
139 -77 18 55 96 -7 -95 -33 -63 -10 91 0
-140 -97 0
-140 21 0
-140 -57 0
-140 42 0
-140 -78 0
-140 -2 0
-140 -89 0
-140 -9 0
-140 -27 0
-140 81 0
140 97 -21 57 -42 78 2 89 9 27 -81 0
131 132 133 134 135 136 137 138 139 140 0
-141 -41 0
-141 88 0
-141 48 0
-141 86 0
-141 -62 0
-141 -32 0
-141 66 0
-141 -4 0
-141 56 0
-141 -10 0
141 41 -88 -48 -86 62 32 -66 4 -56 10 0
-142 -92 0
-142 -98 0
-142 32 0
-142 51 0
-142 45 0
-142 -9 0
-142 100 0
-142 99 0
-142 77 0
-142 27 0
142 92 98 -32 -51 -45 9 -100 -99 -77 -27 0
-143 49 0
-143 -47 0
-143 -94 0
-143 -30 0
-143 60 0
-143 -55 0
-143 -41 0
-143 -98 0
-143 -28 0
-143 76 0
143 -49 47 94 30 -60 55 41 98 28 -76 0
-144 94 0
-144 -70 0
-144 -50 0
-144 -75 0
-144 39 0
-144 3 0
-144 -97 0
-144 -51 0
-144 -60 0
-144 -26 0
144 -94 70 50 75 -39 -3 97 51 60 26 0
-145 37 0
-145 19 0
-145 32 0
-145 18 0
-145 -68 0
-145 -81 0
-145 82 0
-145 43 0
-145 80 0
-145 84 0
145 -37 -19 -32 -18 68 81 -82 -43 -80 -84 0
-146 96 0
-146 76 0
-146 -10 0
-146 70 0
-146 -72 0
-146 49 0
-146 -69 0
-146 2 0
-146 89 0
-146 -85 0
146 -96 -76 10 -70 72 -49 69 -2 -89 85 0
-147 -2 0
-147 -39 0
-147 -50 0
-147 -5 0
-147 -85 0
-147 86 0
-147 70 0
-147 -87 0
-147 19 0
-147 -43 0
147 2 39 50 5 85 -86 -70 87 -19 43 0
-148 -49 0
-148 7 0
-148 34 0
-148 36 0
-148 -13 0
-148 68 0
-148 -76 0
-148 88 0
-148 33 0
-148 55 0
148 49 -7 -34 -36 13 -68 76 -88 -33 -55 0
-149 55 0
-149 49 0
-149 5 0
-149 23 0
-149 73 0
-149 -10 0
-149 -90 0
-149 -51 0
-149 -61 0
-149 -29 0
149 -55 -49 -5 -23 -73 10 90 51 61 29 0
-150 -22 0
-150 -10 0
-150 23 0
-150 73 0
-150 87 0
-150 2 0
-150 72 0
-150 -49 0
-150 43 0
-150 -64 0
150 22 10 -23 -73 -87 -2 -72 49 -43 64 0
141 142 143 144 145 146 147 148 149 150 0
-151 -94 0
-151 -60 0
-151 -32 0
-151 -80 0
-151 -24 0
-151 -40 0
-151 78 0
-151 91 0
-151 -28 0
-151 71 0
151 94 60 32 80 24 40 -78 -91 28 -71 0
-152 52 0
-152 -82 0
-152 2 0
-152 -29 0
-152 62 0
-152 -79 0
-152 -98 0
-152 59 0
-152 80 0
-152 87 0
152 -52 82 -2 29 -62 79 98 -59 -80 -87 0
-153 95 0
-153 -1 0
-153 -59 0
-153 44 0
-153 10 0
-153 4 0
-153 -76 0
-153 23 0
-153 27 0
-153 88 0
153 -95 1 59 -44 -10 -4 76 -23 -27 -88 0
-154 88 0
-154 82 0
-154 17 0
-154 51 0
-154 12 0
-154 71 0
-154 -6 0
-154 -68 0
-154 -30 0
-154 -83 0
154 -88 -82 -17 -51 -12 -71 6 68 30 83 0
-155 53 0
-155 68 0
-155 -21 0
-155 -80 0
-155 -46 0
-155 -48 0
-155 -81 0
-155 39 0
-155 49 0
-155 76 0
155 -53 -68 21 80 46 48 81 -39 -49 -76 0
-156 -100 0
-156 -38 0
-156 -6 0
-156 68 0
-156 -30 0
-156 73 0
-156 -62 0
-156 63 0
-156 -29 0
-156 -80 0
156 100 38 6 -68 30 -73 62 -63 29 80 0
-157 -4 0
-157 27 0
-157 45 0
-157 -20 0
-157 36 0
-157 -18 0
-157 77 0
-157 -9 0
-157 43 0
-157 -15 0
157 4 -27 -45 20 -36 18 -77 9 -43 15 0
-158 -91 0
-158 -54 0
-158 16 0
-158 73 0
-158 95 0
-158 100 0
-158 81 0
-158 -38 0
-158 -88 0
-158 -41 0
158 91 54 -16 -73 -95 -100 -81 38 88 41 0
-159 -35 0
-159 81 0
-159 -61 0
-159 62 0
-159 25 0
-159 80 0
-159 73 0
-159 65 0
-159 49 0
-159 -94 0
159 35 -81 61 -62 -25 -80 -73 -65 -49 94 0
-160 -56 0
-160 52 0
-160 -4 0
-160 66 0
-160 -11 0
-160 23 0
-160 -14 0
-160 1 0
-160 15 0
-160 -77 0
160 56 -52 4 -66 11 -23 14 -1 -15 77 0
151 152 153 154 155 156 157 158 159 160 0
-161 -26 0
-161 -85 0
-161 -88 0
-161 67 0
-161 32 0
-161 94 0
-161 -97 0
-161 64 0
-161 -80 0
-161 -48 0
161 26 85 88 -67 -32 -94 97 -64 80 48 0
-162 13 0
-162 -63 0
-162 5 0
-162 -47 0
-162 3 0
-162 10 0
-162 68 0
-162 -32 0
-162 2 0
-162 -62 0
162 -13 63 -5 47 -3 -10 -68 32 -2 62 0
-163 -40 0
-163 -3 0
-163 49 0
-163 33 0
-163 -76 0
-163 81 0
-163 71 0
-163 -5 0
-163 -55 0
-163 38 0
163 40 3 -49 -33 76 -81 -71 5 55 -38 0
-164 91 0
-164 66 0
-164 38 0
-164 -28 0
-164 -16 0
-164 95 0
-164 50 0
-164 82 0
-164 -9 0
-164 49 0
164 -91 -66 -38 28 16 -95 -50 -82 9 -49 0
-165 -5 0
-165 21 0
-165 27 0
-165 -6 0
-165 49 0
-165 -34 0
-165 -70 0
-165 -38 0
-165 8 0
-165 -33 0
165 5 -21 -27 6 -49 34 70 38 -8 33 0
-166 67 0
-166 -9 0
-166 76 0
-166 -39 0
-166 4 0
-166 -91 0
-166 8 0
-166 -1 0
-166 -61 0
-166 -10 0
166 -67 9 -76 39 -4 91 -8 1 61 10 0
-167 25 0
-167 -9 0
-167 -16 0
-167 -27 0
-167 58 0
-167 51 0
-167 89 0
-167 -97 0
-167 -35 0
-167 -18 0
167 -25 9 16 27 -58 -51 -89 97 35 18 0
-168 23 0
-168 84 0
-168 -49 0
-168 71 0
-168 -5 0
-168 -70 0
-168 80 0
-168 85 0
-168 -30 0
-168 -53 0
168 -23 -84 49 -71 5 70 -80 -85 30 53 0
-169 -19 0
-169 83 0
-169 16 0
-169 7 0
-169 55 0
-169 -63 0
-169 -8 0
-169 -43 0
-169 -56 0
-169 -48 0
169 19 -83 -16 -7 -55 63 8 43 56 48 0
-170 -52 0
-170 30 0
-170 82 0
-170 61 0
-170 50 0
-170 15 0
-170 100 0
-170 -31 0
-170 56 0
-170 89 0
170 52 -30 -82 -61 -50 -15 -100 31 -56 -89 0
161 162 163 164 165 166 167 168 169 170 0
-171 20 0
-171 36 0
-171 -76 0
-171 -24 0
-171 -53 0
-171 15 0
-171 -5 0
-171 -52 0
-171 48 0
-171 -47 0
171 -20 -36 76 24 53 -15 5 52 -48 47 0
-172 -93 0
-172 -90 0
-172 60 0
-172 48 0
-172 64 0
-172 49 0
-172 30 0
-172 -51 0
-172 -96 0
-172 -59 0
172 93 90 -60 -48 -64 -49 -30 51 96 59 0
-173 32 0
-173 -77 0
-173 -10 0
-173 53 0
-173 -57 0
-173 58 0
-173 3 0
-173 25 0
-173 -28 0
-173 71 0
173 -32 77 10 -53 57 -58 -3 -25 28 -71 0
-174 20 0
-174 -84 0
-174 -52 0
-174 72 0
-174 70 0
-174 60 0
-174 18 0
-174 -42 0
-174 69 0
-174 99 0
174 -20 84 52 -72 -70 -60 -18 42 -69 -99 0
-175 -98 0
-175 -97 0
-175 -96 0
-175 -69 0
-175 -35 0
-175 67 0
-175 -75 0
-175 13 0
-175 95 0
-175 -7 0
175 98 97 96 69 35 -67 75 -13 -95 7 0
-176 88 0
-176 -76 0
-176 -45 0
-176 18 0
-176 -35 0
-176 51 0
-176 -65 0
-176 72 0
-176 -37 0
-176 -85 0
176 -88 76 45 -18 35 -51 65 -72 37 85 0
-177 -7 0
-177 40 0
-177 -100 0
-177 -31 0
-177 95 0
-177 91 0
-177 -24 0
-177 -66 0
-177 98 0
-177 -29 0
177 7 -40 100 31 -95 -91 24 66 -98 29 0
-178 -19 0
-178 -44 0
-178 67 0
-178 56 0
-178 41 0
-178 98 0
-178 50 0
-178 74 0
-178 84 0
-178 95 0
178 19 44 -67 -56 -41 -98 -50 -74 -84 -95 0
-179 44 0
-179 -54 0
-179 73 0
-179 30 0
-179 -60 0
-179 51 0
-179 -89 0
-179 -28 0
-179 72 0
-179 95 0
179 -44 54 -73 -30 60 -51 89 28 -72 -95 0
-180 5 0
-180 3 0
-180 -29 0
-180 -73 0
-180 -53 0
-180 68 0
-180 -66 0
-180 95 0
-180 -24 0
-180 45 0
180 -5 -3 29 73 53 -68 66 -95 24 -45 0
171 172 173 174 175 176 177 178 179 180 0
-181 -16 0
-181 -70 0
-181 -83 0
-181 -92 0
-181 9 0
-181 56 0
-181 63 0
-181 -62 0
-181 97 0
-181 -43 0
181 16 70 83 92 -9 -56 -63 62 -97 43 0
-182 88 0
-182 74 0
-182 -48 0
-182 60 0
-182 -30 0
-182 -44 0
-182 11 0
-182 -22 0
-182 -100 0
-182 24 0
182 -88 -74 48 -60 30 44 -11 22 100 -24 0
-183 -16 0
-183 -87 0
-183 -84 0
-183 -56 0
-183 50 0
-183 6 0
-183 1 0
-183 9 0
-183 46 0
-183 66 0
183 16 87 84 56 -50 -6 -1 -9 -46 -66 0
-184 60 0
-184 53 0
-184 22 0
-184 1 0
-184 -21 0
-184 -98 0
-184 -38 0
-184 81 0
-184 -71 0
-184 17 0
184 -60 -53 -22 -1 21 98 38 -81 71 -17 0
-185 -29 0
-185 -5 0
-185 1 0
-185 96 0
-185 -100 0
-185 -60 0
-185 21 0
-185 40 0
-185 -3 0
-185 -33 0
185 29 5 -1 -96 100 60 -21 -40 3 33 0
-186 1 0
-186 -23 0
-186 -9 0
-186 5 0
-186 40 0
-186 -10 0
-186 -3 0
-186 -72 0
-186 -52 0
-186 87 0
186 -1 23 9 -5 -40 10 3 72 52 -87 0
-187 -9 0
-187 -96 0
-187 3 0
-187 8 0
-187 -12 0
-187 48 0
-187 -57 0
-187 -30 0
-187 -94 0
-187 -25 0
187 9 96 -3 -8 12 -48 57 30 94 25 0
-188 -59 0
-188 -63 0
-188 72 0
-188 87 0
-188 -75 0
-188 3 0
-188 -26 0
-188 -13 0
-188 -77 0
-188 50 0
188 59 63 -72 -87 75 -3 26 13 77 -50 0
-189 85 0
-189 100 0
-189 -99 0
-189 -12 0
-189 56 0
-189 80 0
-189 -69 0
-189 -27 0
-189 20 0
-189 82 0
189 -85 -100 99 12 -56 -80 69 27 -20 -82 0
-190 -77 0
-190 16 0
-190 -3 0
-190 -14 0
-190 95 0
-190 -33 0
-190 36 0
-190 -47 0
-190 18 0
-190 40 0
190 77 -16 3 14 -95 33 -36 47 -18 -40 0
181 182 183 184 185 186 187 188 189 190 0
-191 63 0
-191 46 0
-191 -15 0
-191 87 0
-191 -12 0
-191 -94 0
-191 28 0
-191 93 0
-191 -58 0
-191 25 0
191 -63 -46 15 -87 12 94 -28 -93 58 -25 0
-192 -49 0
-192 54 0
-192 20 0
-192 -79 0
-192 -34 0
-192 -12 0
-192 31 0
-192 85 0
-192 -89 0
-192 -44 0
192 49 -54 -20 79 34 12 -31 -85 89 44 0
-193 -17 0
-193 80 0
-193 -26 0
-193 -28 0
-193 9 0
-193 -55 0
-193 -52 0
-193 14 0
-193 32 0
-193 -45 0
193 17 -80 26 28 -9 55 52 -14 -32 45 0
-194 -90 0
-194 51 0
-194 -29 0
-194 -12 0
-194 14 0
-194 45 0
-194 34 0
-194 -91 0
-194 41 0
-194 -73 0
194 90 -51 29 12 -14 -45 -34 91 -41 73 0
-195 -84 0
-195 28 0
-195 -44 0
-195 -69 0
-195 11 0
-195 -90 0
-195 36 0
-195 -47 0
-195 -38 0
-195 -19 0
195 84 -28 44 69 -11 90 -36 47 38 19 0
-196 99 0
-196 87 0
-196 67 0
-196 34 0
-196 -60 0
-196 -36 0
-196 -52 0
-196 23 0
-196 26 0
-196 -42 0
196 -99 -87 -67 -34 60 36 52 -23 -26 42 0
-197 15 0
-197 -77 0
-197 37 0
-197 -33 0
-197 -90 0
-197 -30 0
-197 -18 0
-197 -13 0
-197 59 0
-197 -55 0
197 -15 77 -37 33 90 30 18 13 -59 55 0
-198 35 0
-198 -60 0
-198 61 0
-198 -63 0
-198 -37 0
-198 -74 0
-198 48 0
-198 32 0
-198 -55 0
-198 72 0
198 -35 60 -61 63 37 74 -48 -32 55 -72 0
-199 -73 0
-199 50 0
-199 9 0
-199 -76 0
-199 63 0
-199 69 0
-199 -62 0
-199 5 0
-199 91 0
-199 70 0
199 73 -50 -9 76 -63 -69 62 -5 -91 -70 0
-200 17 0
-200 -81 0
-200 36 0
-200 46 0
-200 32 0
-200 -69 0
-200 23 0
-200 -77 0
-200 47 0
-200 51 0
200 -17 81 -36 -46 -32 69 -23 77 -47 -51 0
191 192 193 194 195 196 197 198 199 200 0
